\ LP format - for model browsing. Use MPS format to capture full model detail.
Minimize
  0 B10(0) + 0 B11(0) + 0 B12(0) + 0 B13(0) + 0 B14(0) + 0 B15(0) + 0 B16(0)
   + 0 B17(0) + 0 B18(0) + 0 B20(0) + 0 B21(0) + 0 B22(0) + 0 B28(0)
   + 0 B29(0) + 0 B30(0) + 0 B31(0) + 0 B32(0) + 0 B33(0) + 0 B34(0)
   + 0 B35(0) + 0 B36(0) + 0 B37(0) + 0 B39(0) + 0 B40(0) + 0 B42(0)
   + 0 B43(0) + 0 B48(0) + 0 B49(0) + 0 B50(0) + 0 B52(0) + 0 B54(0)
   + 0 B58(0) + 0 B59(0) + 0 B60(0) + 0 B62(0) + 0 B65(0) + 0 B68(0)
   + 0 B69(0) + 0 B70(0) + 0 B72(0) + 0 B76(0) + 0 B78(0) + 0 B79(0)
   + 0 B80(0) + 0 B82(0) + 0 B87(0) + 0 B88(0) + 0 B89(0) + 0 B90(0)
   + 0 B91(0) + 0 B93(0) + 0 B94(0) + 0 B95(0) + 0 B96(0) + 0 B97(0)
   + 0 B98(0) + 0 B99(0) + 0 B101(0) + 0 B102(0) + 0 B103(0) + 0 B104(0)
   + 0 B105(0) + 0 B106(0) + 0 B107(0) + 0 B108(0) + 0 B109(0) + I120(1)
Subject To
 c0: B0(13) = 1
 c1: B1(23) = 1
 c2: B2(9) = 1
 c3: B3(23) = 1
 c4: B4(24) = 1
 c5: B5(23) = 1
 c6: B6(23) = 1
 c7: B7(23) = 1
 c8: B8(7) = 1
 c9: B9(7) = 1
 c10: - 1000 B0(13) + I110(14) <= 0
 c11: - 1000 B1(23) + I111(25) <= 0
 c12: - 1000 B2(9) + I112(11) <= 0
 c13: - 1000 B3(23) + I113(25) <= 0
 c14: - 1000 B4(24) + I114(26) <= 0
 c15: - 1000 B5(23) + I115(25) <= 0
 c16: - 1000 B6(23) + I116(25) <= 0
 c17: - 1000 B7(23) + I117(25) <= 0
 c18: - 1000 B8(7) + I118(9) <= 0
 c19: - 1000 B9(7) + I119(9) <= 0
 c20: - 1000 B0(13) - 1000 B9(7) - 1000 B19(2) + I110(14) - I119(9)
   >= -2993
 c21: - 1000 B0(13) - 1000 B9(7) + 1000 B19(2) - I110(14) + I119(9)
   >= -1994
 c22: - 1000 B1(23) - 1000 B3(23) - 1000 B23(2) + I111(25) - I113(25)
   >= -2996
 c23: - 1000 B1(23) - 1000 B3(23) + 1000 B23(2) - I111(25) + I113(25)
   >= -1994
 c24: - 1000 B1(23) - 1000 B4(24) - 1000 B24(2) + I111(25) - I114(26)
   >= -2995
 c25: - 1000 B1(23) - 1000 B4(24) + 1000 B24(2) - I111(25) + I114(26)
   >= -1994
 c26: - 1000 B1(23) - 1000 B5(23) - 1000 B25(2) + I111(25) - I115(25)
   >= -2994
 c27: - 1000 B1(23) - 1000 B5(23) + 1000 B25(2) - I111(25) + I115(25)
   >= -1994
 c28: - 1000 B1(23) - 1000 B6(23) - 1000 B26(2) + I111(25) - I116(25)
   >= -2993
 c29: - 1000 B1(23) - 1000 B6(23) + 1000 B26(2) - I111(25) + I116(25)
   >= -1993
 c30: - 1000 B1(23) - 1000 B7(23) - 1000 B27(2) + I111(25) - I117(25)
   >= -2997
 c31: - 1000 B1(23) - 1000 B7(23) + 1000 B27(2) - I111(25) + I117(25)
   >= -1993
 c32: - 1000 B2(9) - 1000 B8(7) - 1000 B38(2) + I112(11) - I118(9)
   >= -2997
 c33: - 1000 B2(9) - 1000 B8(7) + 1000 B38(2) - I112(11) + I118(9)
   >= -1994
 c34: - 1000 B1(23) - 1000 B3(23) - 1000 B41(2) - I111(25) + I113(25)
   >= -2994
 c35: - 1000 B1(23) - 1000 B3(23) + 1000 B41(2) + I111(25) - I113(25)
   >= -1996
 c36: - 1000 B3(23) - 1000 B4(24) - 1000 B44(2) + I113(25) - I114(26)
   >= -2995
 c37: - 1000 B3(23) - 1000 B4(24) + 1000 B44(2) - I113(25) + I114(26)
   >= -1995
 c38: - 1000 B3(23) - 1000 B5(23) - 1000 B45(2) + I113(25) - I115(25)
   >= -2996
 c39: - 1000 B3(23) - 1000 B5(23) + 1000 B45(2) - I113(25) + I115(25)
   >= -1996
 c40: - 1000 B3(23) - 1000 B6(23) - 1000 B46(2) + I113(25) - I116(25)
   >= -2994
 c41: - 1000 B3(23) - 1000 B6(23) + 1000 B46(2) - I113(25) + I116(25)
   >= -1997
 c42: - 1000 B3(23) - 1000 B7(23) - 1000 B47(2) + I113(25) - I117(25)
   >= -2997
 c43: - 1000 B3(23) - 1000 B7(23) + 1000 B47(2) - I113(25) + I117(25)
   >= -1995
 c44: - 1000 B1(23) - 1000 B4(24) - 1000 B51(2) - I111(25) + I114(26)
   >= -2994
 c45: - 1000 B1(23) - 1000 B4(24) + 1000 B51(2) + I111(25) - I114(26)
   >= -1995
 c46: - 1000 B3(23) - 1000 B4(24) - 1000 B53(2) - I113(25) + I114(26)
   >= -2995
 c47: - 1000 B3(23) - 1000 B4(24) + 1000 B53(2) + I113(25) - I114(26)
   >= -1995
 c48: - 1000 B4(24) - 1000 B5(23) - 1000 B55(2) + I114(26) - I115(25)
   >= -2994
 c49: - 1000 B4(24) - 1000 B5(23) + 1000 B55(2) - I114(26) + I115(25)
   >= -1994
 c50: - 1000 B4(24) - 1000 B6(23) - 1000 B56(2) + I114(26) - I116(25)
   >= -2993
 c51: - 1000 B4(24) - 1000 B6(23) + 1000 B56(2) - I114(26) + I116(25)
   >= -1993
 c52: - 1000 B4(24) - 1000 B7(23) - 1000 B57(2) + I114(26) - I117(25)
   >= -2997
 c53: - 1000 B4(24) - 1000 B7(23) + 1000 B57(2) - I114(26) + I117(25)
   >= -1993
 c54: - 1000 B1(23) - 1000 B5(23) - 1000 B61(2) - I111(25) + I115(25)
   >= -2994
 c55: - 1000 B1(23) - 1000 B5(23) + 1000 B61(2) + I111(25) - I115(25)
   >= -1994
 c56: - 1000 B3(23) - 1000 B5(23) - 1000 B63(2) - I113(25) + I115(25)
   >= -2996
 c57: - 1000 B3(23) - 1000 B5(23) + 1000 B63(2) + I113(25) - I115(25)
   >= -1996
 c58: - 1000 B4(24) - 1000 B5(23) - 1000 B64(2) - I114(26) + I115(25)
   >= -2994
 c59: - 1000 B4(24) - 1000 B5(23) + 1000 B64(2) + I114(26) - I115(25)
   >= -1994
 c60: - 1000 B5(23) - 1000 B6(23) - 1000 B66(2) + I115(25) - I116(25)
   >= -2995
 c61: - 1000 B5(23) - 1000 B6(23) + 1000 B66(2) - I115(25) + I116(25)
   >= -1995
 c62: - 1000 B5(23) - 1000 B7(23) - 1000 B67(2) + I115(25) - I117(25)
   >= -2995
 c63: - 1000 B5(23) - 1000 B7(23) + 1000 B67(2) - I115(25) + I117(25)
   >= -1996
 c64: - 1000 B1(23) - 1000 B6(23) - 1000 B71(2) - I111(25) + I116(25)
   >= -2993
 c65: - 1000 B1(23) - 1000 B6(23) + 1000 B71(2) + I111(25) - I116(25)
   >= -1993
 c66: - 1000 B3(23) - 1000 B6(23) - 1000 B73(2) - I113(25) + I116(25)
   >= -2997
 c67: - 1000 B3(23) - 1000 B6(23) + 1000 B73(2) + I113(25) - I116(25)
   >= -1994
 c68: - 1000 B4(24) - 1000 B6(23) - 1000 B74(2) - I114(26) + I116(25)
   >= -2993
 c69: - 1000 B4(24) - 1000 B6(23) + 1000 B74(2) + I114(26) - I116(25)
   >= -1993
 c70: - 1000 B5(23) - 1000 B6(23) - 1000 B75(2) - I115(25) + I116(25)
   >= -2995
 c71: - 1000 B5(23) - 1000 B6(23) + 1000 B75(2) + I115(25) - I116(25)
   >= -1995
 c72: - 1000 B6(23) - 1000 B7(23) - 1000 B77(2) + I116(25) - I117(25)
   >= -2996
 c73: - 1000 B6(23) - 1000 B7(23) + 1000 B77(2) - I116(25) + I117(25)
   >= -1993
 c74: - 1000 B1(23) - 1000 B7(23) - 1000 B81(2) - I111(25) + I117(25)
   >= -2993
 c75: - 1000 B1(23) - 1000 B7(23) + 1000 B81(2) + I111(25) - I117(25)
   >= -1997
 c76: - 1000 B3(23) - 1000 B7(23) - 1000 B83(2) - I113(25) + I117(25)
   >= -2995
 c77: - 1000 B3(23) - 1000 B7(23) + 1000 B83(2) + I113(25) - I117(25)
   >= -1997
 c78: - 1000 B4(24) - 1000 B7(23) - 1000 B84(2) - I114(26) + I117(25)
   >= -2993
 c79: - 1000 B4(24) - 1000 B7(23) + 1000 B84(2) + I114(26) - I117(25)
   >= -1997
 c80: - 1000 B5(23) - 1000 B7(23) - 1000 B85(2) - I115(25) + I117(25)
   >= -2996
 c81: - 1000 B5(23) - 1000 B7(23) + 1000 B85(2) + I115(25) - I117(25)
   >= -1995
 c82: - 1000 B6(23) - 1000 B7(23) - 1000 B86(2) - I116(25) + I117(25)
   >= -2993
 c83: - 1000 B6(23) - 1000 B7(23) + 1000 B86(2) + I116(25) - I117(25)
   >= -1996
 c84: - 1000 B2(9) - 1000 B8(7) - 1000 B92(2) - I112(11) + I118(9)
   >= -2994
 c85: - 1000 B2(9) - 1000 B8(7) + 1000 B92(2) + I112(11) - I118(9)
   >= -1997
 c86: - 1000 B0(13) - 1000 B9(7) - 1000 B100(2) - I110(14) + I119(9)
   >= -2994
 c87: - 1000 B0(13) - 1000 B9(7) + 1000 B100(2) + I110(14) - I119(9)
   >= -1993
 c88: I110(14) >= 0
 c89: I110(14) >= 0
 c90: I111(25) >= 0
 c91: I111(25) >= 0
 c92: I112(11) >= 0
 c93: I112(11) >= 0
 c94: I113(25) >= 0
 c95: I113(25) >= 0
 c96: I114(26) >= 0
 c97: I114(26) >= 0
 c98: I115(25) >= 0
 c99: I115(25) >= 0
 c100: I116(25) >= 0
 c101: I116(25) >= 0
 c102: I117(25) >= 0
 c103: I117(25) >= 0
 c104: I118(9) >= 0
 c105: I118(9) >= 0
 c106: I119(9) >= 0
 c107: I119(9) >= 0
 c108: - 3 B0(13) - I110(14) + I111(25) >= 0
 c109: - 3 B0(13) - I110(14) + I112(11) >= 0
 c110: - 3 B0(13) - I110(14) + I114(26) >= 0
 c111: - 3 B0(13) - I110(14) + I115(25) >= 0
 c112: - 3 B0(13) - I110(14) + I117(25) >= 0
 c113: - 3 B0(13) - I110(14) + I119(9) >= 0
 c114: - 3 B2(9) - I112(11) + I113(25) >= 0
 c115: - 3 B2(9) - I112(11) + I116(25) >= 0
 c116: - 4 B4(24) - I114(26) + I118(9) >= 0
 c117: - 3 B0(13) - 4 B1(23) - 3 B2(9) - 2 B3(23) - 4 B4(24) - 3 B5(23)
   - 4 B6(23) - 2 B7(23) - 2 B8(7) - 4 B9(7) - I110(14) - I111(25)
   - I112(11) - I113(25) - I114(26) - I115(25) - I116(25) - I117(25)
   - I118(9) - I119(9) + I120(1) >= 0
Bounds
Binaries
 B0(13) B1(23) B2(9) B3(23) B4(24) B5(23) B6(23) B7(23) B8(7) B9(7) B10(0)
 B11(0) B12(0) B13(0) B14(0) B15(0) B16(0) B17(0) B18(0) B19(2) B20(0)
 B21(0) B22(0) B23(2) B24(2) B25(2) B26(2) B27(2) B28(0) B29(0) B30(0)
 B31(0) B32(0) B33(0) B34(0) B35(0) B36(0) B37(0) B38(2) B39(0) B40(0)
 B41(2) B42(0) B43(0) B44(2) B45(2) B46(2) B47(2) B48(0) B49(0) B50(0)
 B51(2) B52(0) B53(2) B54(0) B55(2) B56(2) B57(2) B58(0) B59(0) B60(0)
 B61(2) B62(0) B63(2) B64(2) B65(0) B66(2) B67(2) B68(0) B69(0) B70(0)
 B71(2) B72(0) B73(2) B74(2) B75(2) B76(0) B77(2) B78(0) B79(0) B80(0)
 B81(2) B82(0) B83(2) B84(2) B85(2) B86(2) B87(0) B88(0) B89(0) B90(0)
 B91(0) B92(2) B93(0) B94(0) B95(0) B96(0) B97(0) B98(0) B99(0) B100(2)
 B101(0) B102(0) B103(0) B104(0) B105(0) B106(0) B107(0) B108(0) B109(0)
Generals
 I110(14) I111(25) I112(11) I113(25) I114(26) I115(25) I116(25) I117(25)
 I118(9) I119(9) I120(1)
End
